c n orig vars 118
p cnf 120 430
1 2 -119 0
3 4 -119 0
5 6 -119 0
7 8 -119 0
9 10 -119 0
11 12 -119 0
13 14 -119 0
15 16 -119 0
17 18 -119 0
19 20 -119 0
21 22 -119 0
23 24 -119 0
25 26 -119 0
27 28 -119 0
29 39 49 59 69 79 89 99 109 -120 0
30 40 50 60 70 80 90 100 110 -120 0
31 41 51 61 71 81 91 101 111 -120 0
32 42 52 62 72 82 92 102 112 -120 0
33 43 53 63 73 83 93 103 113 -120 0
34 44 54 64 74 84 94 104 114 -120 0
35 45 55 65 75 85 95 105 115 -120 0
36 46 56 66 76 86 96 106 116 -120 0
37 47 57 67 77 87 97 107 117 -120 0
38 48 58 68 78 88 98 108 118 -120 0
-29 -30 -120 0
-29 -31 -120 0
-29 -32 -120 0
-29 -33 -120 0
-29 -34 -120 0
-29 -35 -120 0
-29 -36 -120 0
-29 -37 -120 0
-29 -38 -120 0
-30 -31 -120 0
-30 -32 -120 0
-30 -33 -120 0
-30 -34 -120 0
-30 -35 -120 0
-30 -36 -120 0
-30 -37 -120 0
-30 -38 -120 0
-31 -32 -120 0
-31 -33 -120 0
-31 -34 -120 0
-31 -35 -120 0
-31 -36 -120 0
-31 -37 -120 0
-31 -38 -120 0
-32 -33 -120 0
-32 -34 -120 0
-32 -35 -120 0
-32 -36 -120 0
-32 -37 -120 0
-32 -38 -120 0
-33 -34 -120 0
-33 -35 -120 0
-33 -36 -120 0
-33 -37 -120 0
-33 -38 -120 0
-34 -35 -120 0
-34 -36 -120 0
-34 -37 -120 0
-34 -38 -120 0
-35 -36 -120 0
-35 -37 -120 0
-35 -38 -120 0
-36 -37 -120 0
-36 -38 -120 0
-37 -38 -120 0
-39 -40 -120 0
-39 -41 -120 0
-39 -42 -120 0
-39 -43 -120 0
-39 -44 -120 0
-39 -45 -120 0
-39 -46 -120 0
-39 -47 -120 0
-39 -48 -120 0
-40 -41 -120 0
-40 -42 -120 0
-40 -43 -120 0
-40 -44 -120 0
-40 -45 -120 0
-40 -46 -120 0
-40 -47 -120 0
-40 -48 -120 0
-41 -42 -120 0
-41 -43 -120 0
-41 -44 -120 0
-41 -45 -120 0
-41 -46 -120 0
-41 -47 -120 0
-41 -48 -120 0
-42 -43 -120 0
-42 -44 -120 0
-42 -45 -120 0
-42 -46 -120 0
-42 -47 -120 0
-42 -48 -120 0
-43 -44 -120 0
-43 -45 -120 0
-43 -46 -120 0
-43 -47 -120 0
-43 -48 -120 0
-44 -45 -120 0
-44 -46 -120 0
-44 -47 -120 0
-44 -48 -120 0
-45 -46 -120 0
-45 -47 -120 0
-45 -48 -120 0
-46 -47 -120 0
-46 -48 -120 0
-47 -48 -120 0
-49 -50 -120 0
-49 -51 -120 0
-49 -52 -120 0
-49 -53 -120 0
-49 -54 -120 0
-49 -55 -120 0
-49 -56 -120 0
-49 -57 -120 0
-49 -58 -120 0
-50 -51 -120 0
-50 -52 -120 0
-50 -53 -120 0
-50 -54 -120 0
-50 -55 -120 0
-50 -56 -120 0
-50 -57 -120 0
-50 -58 -120 0
-51 -52 -120 0
-51 -53 -120 0
-51 -54 -120 0
-51 -55 -120 0
-51 -56 -120 0
-51 -57 -120 0
-51 -58 -120 0
-52 -53 -120 0
-52 -54 -120 0
-52 -55 -120 0
-52 -56 -120 0
-52 -57 -120 0
-52 -58 -120 0
-53 -54 -120 0
-53 -55 -120 0
-53 -56 -120 0
-53 -57 -120 0
-53 -58 -120 0
-54 -55 -120 0
-54 -56 -120 0
-54 -57 -120 0
-54 -58 -120 0
-55 -56 -120 0
-55 -57 -120 0
-55 -58 -120 0
-56 -57 -120 0
-56 -58 -120 0
-57 -58 -120 0
-59 -60 -120 0
-59 -61 -120 0
-59 -62 -120 0
-59 -63 -120 0
-59 -64 -120 0
-59 -65 -120 0
-59 -66 -120 0
-59 -67 -120 0
-59 -68 -120 0
-60 -61 -120 0
-60 -62 -120 0
-60 -63 -120 0
-60 -64 -120 0
-60 -65 -120 0
-60 -66 -120 0
-60 -67 -120 0
-60 -68 -120 0
-61 -62 -120 0
-61 -63 -120 0
-61 -64 -120 0
-61 -65 -120 0
-61 -66 -120 0
-61 -67 -120 0
-61 -68 -120 0
-62 -63 -120 0
-62 -64 -120 0
-62 -65 -120 0
-62 -66 -120 0
-62 -67 -120 0
-62 -68 -120 0
-63 -64 -120 0
-63 -65 -120 0
-63 -66 -120 0
-63 -67 -120 0
-63 -68 -120 0
-64 -65 -120 0
-64 -66 -120 0
-64 -67 -120 0
-64 -68 -120 0
-65 -66 -120 0
-65 -67 -120 0
-65 -68 -120 0
-66 -67 -120 0
-66 -68 -120 0
-67 -68 -120 0
-69 -70 -120 0
-69 -71 -120 0
-69 -72 -120 0
-69 -73 -120 0
-69 -74 -120 0
-69 -75 -120 0
-69 -76 -120 0
-69 -77 -120 0
-69 -78 -120 0
-70 -71 -120 0
-70 -72 -120 0
-70 -73 -120 0
-70 -74 -120 0
-70 -75 -120 0
-70 -76 -120 0
-70 -77 -120 0
-70 -78 -120 0
-71 -72 -120 0
-71 -73 -120 0
-71 -74 -120 0
-71 -75 -120 0
-71 -76 -120 0
-71 -77 -120 0
-71 -78 -120 0
-72 -73 -120 0
-72 -74 -120 0
-72 -75 -120 0
-72 -76 -120 0
-72 -77 -120 0
-72 -78 -120 0
-73 -74 -120 0
-73 -75 -120 0
-73 -76 -120 0
-73 -77 -120 0
-73 -78 -120 0
-74 -75 -120 0
-74 -76 -120 0
-74 -77 -120 0
-74 -78 -120 0
-75 -76 -120 0
-75 -77 -120 0
-75 -78 -120 0
-76 -77 -120 0
-76 -78 -120 0
-77 -78 -120 0
-79 -80 -120 0
-79 -81 -120 0
-79 -82 -120 0
-79 -83 -120 0
-79 -84 -120 0
-79 -85 -120 0
-79 -86 -120 0
-79 -87 -120 0
-79 -88 -120 0
-80 -81 -120 0
-80 -82 -120 0
-80 -83 -120 0
-80 -84 -120 0
-80 -85 -120 0
-80 -86 -120 0
-80 -87 -120 0
-80 -88 -120 0
-81 -82 -120 0
-81 -83 -120 0
-81 -84 -120 0
-81 -85 -120 0
-81 -86 -120 0
-81 -87 -120 0
-81 -88 -120 0
-82 -83 -120 0
-82 -84 -120 0
-82 -85 -120 0
-82 -86 -120 0
-82 -87 -120 0
-82 -88 -120 0
-83 -84 -120 0
-83 -85 -120 0
-83 -86 -120 0
-83 -87 -120 0
-83 -88 -120 0
-84 -85 -120 0
-84 -86 -120 0
-84 -87 -120 0
-84 -88 -120 0
-85 -86 -120 0
-85 -87 -120 0
-85 -88 -120 0
-86 -87 -120 0
-86 -88 -120 0
-87 -88 -120 0
-89 -90 -120 0
-89 -91 -120 0
-89 -92 -120 0
-89 -93 -120 0
-89 -94 -120 0
-89 -95 -120 0
-89 -96 -120 0
-89 -97 -120 0
-89 -98 -120 0
-90 -91 -120 0
-90 -92 -120 0
-90 -93 -120 0
-90 -94 -120 0
-90 -95 -120 0
-90 -96 -120 0
-90 -97 -120 0
-90 -98 -120 0
-91 -92 -120 0
-91 -93 -120 0
-91 -94 -120 0
-91 -95 -120 0
-91 -96 -120 0
-91 -97 -120 0
-91 -98 -120 0
-92 -93 -120 0
-92 -94 -120 0
-92 -95 -120 0
-92 -96 -120 0
-92 -97 -120 0
-92 -98 -120 0
-93 -94 -120 0
-93 -95 -120 0
-93 -96 -120 0
-93 -97 -120 0
-93 -98 -120 0
-94 -95 -120 0
-94 -96 -120 0
-94 -97 -120 0
-94 -98 -120 0
-95 -96 -120 0
-95 -97 -120 0
-95 -98 -120 0
-96 -97 -120 0
-96 -98 -120 0
-97 -98 -120 0
-99 -100 -120 0
-99 -101 -120 0
-99 -102 -120 0
-99 -103 -120 0
-99 -104 -120 0
-99 -105 -120 0
-99 -106 -120 0
-99 -107 -120 0
-99 -108 -120 0
-100 -101 -120 0
-100 -102 -120 0
-100 -103 -120 0
-100 -104 -120 0
-100 -105 -120 0
-100 -106 -120 0
-100 -107 -120 0
-100 -108 -120 0
-101 -102 -120 0
-101 -103 -120 0
-101 -104 -120 0
-101 -105 -120 0
-101 -106 -120 0
-101 -107 -120 0
-101 -108 -120 0
-102 -103 -120 0
-102 -104 -120 0
-102 -105 -120 0
-102 -106 -120 0
-102 -107 -120 0
-102 -108 -120 0
-103 -104 -120 0
-103 -105 -120 0
-103 -106 -120 0
-103 -107 -120 0
-103 -108 -120 0
-104 -105 -120 0
-104 -106 -120 0
-104 -107 -120 0
-104 -108 -120 0
-105 -106 -120 0
-105 -107 -120 0
-105 -108 -120 0
-106 -107 -120 0
-106 -108 -120 0
-107 -108 -120 0
-109 -110 -120 0
-109 -111 -120 0
-109 -112 -120 0
-109 -113 -120 0
-109 -114 -120 0
-109 -115 -120 0
-109 -116 -120 0
-109 -117 -120 0
-109 -118 -120 0
-110 -111 -120 0
-110 -112 -120 0
-110 -113 -120 0
-110 -114 -120 0
-110 -115 -120 0
-110 -116 -120 0
-110 -117 -120 0
-110 -118 -120 0
-111 -112 -120 0
-111 -113 -120 0
-111 -114 -120 0
-111 -115 -120 0
-111 -116 -120 0
-111 -117 -120 0
-111 -118 -120 0
-112 -113 -120 0
-112 -114 -120 0
-112 -115 -120 0
-112 -116 -120 0
-112 -117 -120 0
-112 -118 -120 0
-113 -114 -120 0
-113 -115 -120 0
-113 -116 -120 0
-113 -117 -120 0
-113 -118 -120 0
-114 -115 -120 0
-114 -116 -120 0
-114 -117 -120 0
-114 -118 -120 0
-115 -116 -120 0
-115 -117 -120 0
-115 -118 -120 0
-116 -117 -120 0
-116 -118 -120 0
-117 -118 -120 0
119 120 0
